; benchmark generated from python API
(set-info :status unknown)
(declare-fun W_S1_V5 () Bool)
(declare-fun W_S1_V4 () Bool)
(declare-fun W_S1_V3 () Bool)
(declare-fun R_S1_V1 () Bool)
(declare-fun R_S1_V2 () Bool)
(declare-fun W_S1_V1 () Bool)
(declare-fun R_S1_V4 () Bool)
(declare-fun R_S1_V3 () Bool)
(declare-fun R_S1_V5 () Bool)
(declare-fun W_S1_V2 () Bool)
(declare-fun R_B1_V1 () Bool)
(declare-fun R_B1_V2 () Bool)
(declare-fun R_B1_V5 () Bool)
(declare-fun W_S2_V1 () Bool)
(declare-fun W_S2_V5 () Bool)
(declare-fun W_S2_V4 () Bool)
(declare-fun W_S2_V2 () Bool)
(declare-fun W_S2_V3 () Bool)
(declare-fun R_B1_V4 () Bool)
(declare-fun R_B1_V3 () Bool)
(declare-fun R_S2_V1 () Bool)
(declare-fun R_S2_V3 () Bool)
(declare-fun R_S2_V5 () Bool)
(declare-fun R_S2_V4 () Bool)
(declare-fun R_S2_V2 () Bool)
(assert
 (let (($x2137 (not W_S1_V5)))
 (let (($x1801 (not W_S1_V4)))
 (let (($x2786 (not W_S1_V3)))
 (let (($x3088 (not R_S1_V1)))
 (let (($x961 (not R_S1_V2)))
 (let (($x1950 (not (and W_S1_V1 $x961 $x3088 $x2786 $x1801 $x2137))))
 (let (($x2575 (not (and W_S1_V1 (not R_S1_V4) $x961 $x3088 $x2786 $x2137))))
 (let (($x1404 (not (and W_S1_V1 $x961 (not R_S1_V3) $x3088 $x1801 $x2137))))
 (let (($x3466 (not (and W_S1_V1 (not R_S1_V4) $x961 (not R_S1_V3) $x3088 $x2137))))
 (let (($x152 (not (and W_S1_V1 (not R_S1_V5) $x961 $x3088 $x2786 $x1801))))
 (let (($x1345 (not (and W_S1_V1 (not R_S1_V4) (not R_S1_V5) $x961 $x3088 $x2786))))
 (let (($x2090 (not (and W_S1_V1 (not R_S1_V5) $x961 (not R_S1_V3) $x3088 $x1801))))
 (let (($x5055 (not R_S1_V3)))
 (let (($x5866 (not R_S1_V5)))
 (let (($x3130 (not R_S1_V4)))
 (let (($x3435 (not (and W_S1_V1 $x3130 $x5866 $x961 $x5055 $x3088))))
 (let (($x1209 (not (and W_S1_V1 $x5866 $x3088 (not W_S1_V2) $x2786 $x1801))))
 (let (($x1686 (not (and W_S1_V1 $x5866 $x5055 $x3088 (not W_S1_V2) $x1801))))
 (let (($x1975 (not (and W_S1_V1 $x3130 $x5866 $x3088 (not W_S1_V2) $x2786))))
 (let (($x4176 (not (and W_S1_V1 $x3130 $x5866 $x5055 $x3088 (not W_S1_V2)))))
 (let (($x2012 (not (and (not R_B1_V2) (not R_B1_V1) $x2786 $x1801 $x2137))))
 (let (($x3451 (not (and (not R_B1_V5) (not R_B1_V2) (not R_B1_V1) $x2786 $x1801))))
 (let (($x714 (not W_S2_V1)))
 (let (($x4040 (not W_S2_V5)))
 (let (($x3240 (not W_S2_V4)))
 (let (($x27 (not W_S2_V2)))
 (let (($x1792 (not W_S2_V3)))
 (let (($x3863 (not (and $x961 $x3088 $x1792 $x2786 $x1801 $x27 $x3240 $x4040 $x2137 $x714))))
 (let (($x594 (not (and (not R_B1_V4) (not R_B1_V2) (not R_B1_V1) $x2786 $x2137))))
 (let (($x4653 (not (and $x3130 $x5866 $x961 $x3088 $x1792 $x2786 $x27 $x3240 $x4040 $x714))))
 (let (($x867 (not (and $x5866 $x961 $x3088 $x1792 $x2786 $x1801 $x27 $x3240 $x4040 $x714))))
 (let (($x336 (not (and $x3130 $x5866 $x3088 (not W_S1_V2) $x1792 $x2786 $x27 $x3240 $x4040 $x714))))
 (let (($x2872 (not (and $x5866 $x3088 (not W_S1_V2) $x1792 $x2786 $x1801 $x27 $x3240 $x4040 $x714))))
 (let (($x5072 (not (and (not W_S1_V2) $x1792 $x2786 $x1801 $x27 $x3240 $x4040 $x2137 $x714))))
 (let (($x2401 (not (and (not R_B1_V1) (not W_S1_V2) $x2786 $x1801 $x2137))))
 (let (($x5988 (not (and (not R_B1_V4) (not R_B1_V1) (not W_S1_V2) $x2786 $x2137))))
 (let (($x1827 (not (and (not R_B1_V3) (not R_B1_V1) (not W_S1_V2) $x1801 $x2137))))
 (let (($x2578 (not W_S1_V2)))
 (let (($x2835 (not R_B1_V1)))
 (let (($x435 (not R_B1_V3)))
 (let (($x2283 (not R_B1_V4)))
 (let (($x5861 (not (and $x2283 $x435 $x2835 $x2578 $x2137))))
 (let (($x5839 (not (and (not R_B1_V2) $x435 $x2835 $x1801 $x2137))))
 (let (($x470 (not (and $x2283 (not R_B1_V2) $x435 $x2835 $x2137))))
 (let (($x3448 (not (and (not R_B1_V5) $x2835 $x2578 $x2786 $x1801))))
 (let (($x1617 (not (and (not R_B1_V5) $x435 $x2835 $x2578 $x1801))))
 (let (($x567 (not (and (not R_B1_V5) (not R_B1_V2) $x435 $x2835 $x1801))))
 (let (($x2627 (not (and $x2283 (not R_B1_V5) $x2835 $x2578 $x2786))))
 (let (($x2444 (not (and $x2283 (not R_B1_V5) $x435 $x2835 $x2578))))
 (let (($x1539 (not (and $x2283 (not R_B1_V5) (not R_B1_V2) $x2835 $x2786))))
 (let (($x2769 (not R_B1_V2)))
 (let (($x2440 (not R_B1_V5)))
 (let (($x1309 (and $x2283 $x2440 $x2769 $x435 $x2835)))
 (let (($x1831 (not $x1309)))
 (let (($x1842 (forall ((V4_0 Int) )(forall ((V5_0 Int) )(forall ((V2_0 Int) )(forall ((V3_0 Int) )(forall ((V1_0 Int) )(forall ((S1_V4_!15182 Int) )(forall ((S1_V4_!15194 Int) )(forall ((S1_V4_!15199 Int) )(forall ((S2_V4_!15188 Int) )(forall ((S2_V5_!15189 Int) )(forall ((S1_V1_!15186 Int) )(forall ((S1_V1_!15198 Int) )(forall ((S1_V1_!15203 Int) )(forall ((S1_V3_!15185 Int) )(forall ((S1_V3_!15197 Int) )(forall ((S1_V3_!15202 Int) )(forall ((S1_V2_!15184 Int) )(forall ((S1_V2_!15196 Int) )(forall ((S1_V2_!15201 Int) )(forall ((B1_!15181 Bool) )(forall ((B1_!15187 Bool) )(forall ((B1_!15193 Bool) )(forall ((S2_V1_!15192 Int) )(forall ((S2_V2_!15190 Int) )(forall ((S2_V3_!15191 Int) )(forall ((S1_V5_!15183 Int) )(forall ((S1_V5_!15195 Int) )(forall ((S1_V5_!15200 Int) )(let ((?x1135 (ite W_S1_V1 S1_V1_!15198 V1_0)))
 (let ((?x39 (+ 1 ?x1135)))
 (let ((?x1712 (ite W_S1_V1 S1_V1_!15203 ?x39)))
 (let ((?x2701 (+ 1 (ite W_S1_V1 S1_V1_!15186 V1_0))))
 (let ((?x135 (ite W_S2_V1 S2_V1_!15192 ?x2701)))
 (let (($x5161 (= (ite W_S2_V3 S2_V3_!15191 (ite W_S1_V3 S1_V3_!15185 V3_0)) (ite W_S1_V3 S1_V3_!15202 V3_0))))
 (let ((?x5962 (ite W_S1_V2 S1_V2_!15201 V2_0)))
 (let ((?x5310 (ite W_S1_V2 S1_V2_!15184 V2_0)))
 (let ((?x2804 (ite W_S2_V2 S2_V2_!15190 ?x5310)))
 (let (($x2132 (= (ite W_S2_V5 S2_V5_!15189 (ite W_S1_V5 S1_V5_!15183 V5_0)) (ite W_S1_V5 S1_V5_!15200 V5_0))))
 (let (($x2432 (= (ite W_S2_V4 S2_V4_!15188 (ite W_S1_V4 S1_V4_!15182 V4_0)) (ite W_S1_V4 S1_V4_!15199 V4_0))))
 (let (($x5755 (and (not (<= V2_0 V1_0)) B1_!15181 (not (<= ?x5310 ?x2701)) (not B1_!15187) (>= ?x135 (+ (- 1) ?x2804)) B1_!15193 (not (<= (ite W_S1_V2 S1_V2_!15196 V2_0) ?x39)) (>= ?x1712 (+ (- 1) ?x5962)))))
 (let (($x2955 (and (or (not R_S1_V4) (= (ite W_S1_V4 S1_V4_!15194 V4_0) V4_0)) (or (not R_S1_V5) (= (ite W_S1_V5 S1_V5_!15195 V5_0) V5_0)) (or (not R_S1_V2) (= (ite W_S1_V2 S1_V2_!15196 V2_0) V2_0)) (or (not R_S1_V3) (= (ite W_S1_V3 S1_V3_!15197 V3_0) V3_0)) (or (not R_S1_V1) (= ?x1135 (+ (- 1) V1_0))))))
 (let (($x2641 (not $x2955)))
 (let (($x5317 (= S1_V5_!15195 S1_V5_!15200)))
 (let (($x2764 (and (or (not R_S1_V4) (= V4_0 (ite W_S1_V4 S1_V4_!15194 V4_0))) (or (not R_S1_V5) (= V5_0 (ite W_S1_V5 S1_V5_!15195 V5_0))) (or (not R_S1_V2) (= V2_0 (ite W_S1_V2 S1_V2_!15196 V2_0))) (or (not R_S1_V3) (= V3_0 (ite W_S1_V3 S1_V3_!15197 V3_0))) (or (not R_S1_V1) (= V1_0 ?x39)))))
 (let (($x2674 (not $x2764)))
 (let (($x2709 (and (or (not R_B1_V4) (= V4_0 (ite W_S1_V4 S1_V4_!15182 V4_0))) (or (not R_B1_V5) (= V5_0 (ite W_S1_V5 S1_V5_!15183 V5_0))) (or (not R_B1_V2) (= V2_0 ?x5310)) (or (not R_B1_V3) (= V3_0 (ite W_S1_V3 S1_V3_!15185 V3_0))) (or (not R_B1_V1) (= V1_0 ?x2701)))))
 (let (($x3320 (not $x2709)))
 (let (($x628 (and (= S1_V4_!15182 S1_V4_!15194) (or $x2641 (= S1_V4_!15199 S1_V4_!15182)) (or $x2641 (= S1_V4_!15199 S1_V4_!15194)) (= S1_V1_!15186 S1_V1_!15198) (or $x2674 (= S1_V1_!15186 S1_V1_!15203)) (or $x2674 (= S1_V1_!15198 S1_V1_!15203)) (= S1_V3_!15185 S1_V3_!15197) (or $x2641 (= S1_V3_!15202 S1_V3_!15185)) (or $x2641 (= S1_V3_!15202 S1_V3_!15197)) (or $x2674 (= S1_V2_!15184 S1_V2_!15201)) (= S1_V2_!15196 S1_V2_!15184) (or $x2674 (= S1_V2_!15196 S1_V2_!15201)) (or $x3320 (= B1_!15181 B1_!15187)) (= B1_!15181 B1_!15193) (or $x3320 (= B1_!15193 B1_!15187)) (= S1_V5_!15195 S1_V5_!15183) (or $x2674 $x5317) (or $x2641 (= S1_V5_!15200 S1_V5_!15183)))))
 (or (not $x628) (not $x5755) (and $x2432 $x2132 (= ?x2804 ?x5962) $x5161 (= ?x135 ?x1712))))))))))))))))))))))))
 )
 )
 )
 )
 )
 )
 )
 )
 )
 )
 )
 )
 )
 )
 )
 )
 )
 )
 )
 )
 )
 )
 )
 )
 )
 )
 )
 ))
 (let (($x889 (not W_S1_V1)))
 (let (($x605 (not R_S2_V1)))
 (let (($x3861 (not R_S2_V3)))
 (let (($x5098 (not R_S2_V5)))
 (let (($x5785 (not R_S2_V4)))
 (let (($x3785 (and $x5785 $x5098 $x3861 $x605 $x2578 $x2786 $x1801 $x27 $x889 $x2137)))
 (let (($x5715 (and $x5785 $x3861 $x605 $x2578 $x2786 $x1801 $x27 $x889 $x4040 $x2137)))
 (let (($x3367 (not R_S2_V2)))
 (let (($x2197 (and $x5785 $x3367 $x3861 $x605 $x2578 $x2786 $x1801 $x889 $x4040 $x2137)))
 (let (($x4204 (and $x5098 $x3367 $x3861 $x605 $x2578 $x2786 $x1801 $x889 $x3240 $x2137)))
 (let (($x6024 (and $x5785 $x5098 $x3367 $x3861 $x605 $x2578 $x2786 $x1801 $x889 $x2137)))
 (let (($x590 (and $x5098 $x3367 $x605 $x2578 $x1792 $x2786 $x1801 $x889 $x3240 $x2137)))
 (let (($x2266 (and $x5098 $x3861 $x605 $x2578 $x2786 $x1801 $x27 $x889 $x3240 $x2137)))
 (let (($x2559 (and $x2578 $x1792 $x2786 $x1801 $x27 $x889 $x3240 $x4040 $x2137 $x714)))
 (let (($x2499 (and $x3367 $x3861 $x605 $x2578 $x2786 $x1801 $x889 $x3240 $x4040 $x2137)))
 (let (($x2067 (and $x3367 $x605 $x2578 $x1792 $x2786 $x1801 $x889 $x3240 $x4040 $x2137)))
 (let (($x1604 (and $x605 $x2578 $x1792 $x2786 $x1801 $x27 $x889 $x3240 $x4040 $x2137)))
 (let (($x1060 (and $x2835 $x1792 $x27 $x3240 $x4040)))
 (let (($x5947 (and $x2440 $x2835 $x1792 $x27 $x3240)))
 (let (($x1521 (and $x2283 $x2835 $x1792 $x27 $x4040)))
 (let (($x837 (and $x2283 $x2440 $x2835 $x1792 $x27)))
 (let (($x2368 (and $x3861 $x605 $x2578 $x2786 $x1801 $x27 $x889 $x3240 $x4040 $x2137)))
 (let (($x4632 (and $x2769 $x2835 $x1792 $x3240 $x4040)))
 (let (($x2510 (and $x2440 $x2769 $x2835 $x1792 $x3240)))
 (let (($x6062 (and $x2283 $x2769 $x2835 $x1792 $x4040)))
 (let (($x5939 (and $x2283 $x2440 $x2769 $x2835 $x1792)))
 (let (($x4134 (and $x2283 $x2769 $x435 $x2835 $x4040)))
 (let (($x969 (and $x2283 $x2440 $x435 $x2835 $x27)))
 (let (($x3581 (and $x5785 $x5098 $x3367 $x605 $x2578 $x1792 $x2786 $x1801 $x889 $x2137)))
 (let (($x4159 (and $x5785 $x3367 $x605 $x2578 $x1792 $x2786 $x1801 $x889 $x4040 $x2137)))
 (let (($x3989 (and $x5785 $x5098 $x605 $x2578 $x1792 $x2786 $x1801 $x27 $x889 $x2137)))
 (let (($x1607 (and $x5098 $x605 $x2578 $x1792 $x2786 $x1801 $x27 $x889 $x3240 $x2137)))
 (let (($x1213 (and $x5785 $x605 $x2578 $x1792 $x2786 $x1801 $x27 $x889 $x4040 $x2137)))
 (let (($x819 (and $x435 $x2835 $x27 $x3240 $x4040)))
 (let (($x5753 (and $x2440 $x435 $x2835 $x27 $x3240)))
 (let (($x905 (and $x2283 $x435 $x2835 $x27 $x4040)))
 (let (($x4604 (and $x2769 $x435 $x2835 $x3240 $x4040)))
 (let (($x1008 (and $x2440 $x2769 $x435 $x2835 $x3240)))
 (let (($x3611 (or $x1309 $x1008 $x4604 $x905 $x5753 $x819 $x1213 $x1607 $x3989 $x4159 $x3581 $x969 $x4134 $x5939 $x6062 $x2510 $x4632 $x2368 $x837 $x1521 $x5947 $x1060 $x1604 $x2067 $x2499 $x2559 $x2266 $x590 $x6024 $x4204 $x2197 $x5715 $x3785)))
 (and $x3611 $x1842 $x1831 $x1539 $x2444 $x2627 $x567 $x1617 $x3448 $x470 $x5839 $x5861 $x1827 $x5988 $x2401 $x5072 $x2872 $x336 $x867 $x4653 $x594 $x3863 $x3451 $x2012 $x4176 $x1975 $x1686 $x1209 $x3435 $x2090 $x1345 $x152 $x3466 $x1404 $x2575 $x1950))))))))))))))))))))))))))))))))))))))))))))))))))))))))))))))))))))))))))))))))))))))))))))))))
(check-sat)
